750
500
400
400
399
399
398
397
397
397
396
396
396
396
395
395
393
392
392
392
390
389
389
388
388
388
388
386
386
385
385
384
384
382
381
381
381
380
380
380
379
379
379
378
378
378
377
377
377
376
375
375
374
374
373
372
372
371
370
370
367
366
366
366
365
365
365
365
364
364
364
361
361
360
360
359
359
359
358
358
358
357
357
357
357
356
356
356
355
355
355
355
354
352
352
350
349
349
347
347
346
345
344
344
344
344
343
343
343
342
342
342
341
339
339
339
337
337
337
337
337
337
336
335
335
335
334
333
333
332
331
330
329
328
327
326
326
326
324
324
324
323
323
322
322
321
321
321
321
321
320
320
320
319
318
318
318
318
317
317
317
317
316
316
315
312
312
312
311
311
310
308
308
308
308
307
307
307
307
306
306
305
305
305
304
303
303
303
303
303
302
302
302
301
301
301
300
299
299
299
299
298
298
298
298
297
297
296
295
295
295
294
294
293
292
292
291
291
290
289
289
288
288
287
287
287
287
287
287
287
285
285
284
284
284
283
283
283
283
283
283
282
282
282
281
281
281
281
279
279
278
278
277
277
277
277
276
275
275
274
274
274
274
273
272
272
272
271
271
270
270
269
268
268
268
268
268
267
267
267
267
266
266
266
266
266
266
265
265
265
264
264
262
261
261
260
259
258
258
258
257
257
256
256
256
256
255
255
255
254
254
254
253
253
253
253
252
251
251
251
250
250
249
248
248
248
248
247
246
244
244
243
243
243
242
241
241
239
239
239
239
238
238
237
236
235
235
233
233
233
232
232
230
230
230
230
230
229
229
227
227
227
225
225
225
225
224
223
222
222
222
222
222
220
220
219
219
219
219
218
218
218
217
217
217
217
217
216
215
215
215
214
214
213
211
210
210
209
209
209
208
208
208
207
207
206
205
205
204
204
203
203
203
202
202
202
201
200
200
199
199
198
198
197
197
197
196
196
196
196
195
194
194
193
193
192
191
191
190
189
189
189
185
185
184
183
183
183
182
182
182
181
181
180
179
179
179
179
178
178
176
175
174
174
174
173
172
172
172
171
171
170
169
169
169
169
169
168
168
168
168
167
167
166
166
166
165
165
165
164
164
163
162
162
161
161
161
160
160
160
159
158
158
158
157
157
157
156
156
155
155
155
154
154
154
153
152
152
152
151
151
151
150
149
149
149
149
148
148
147
147
147
146
146
144
144
144
143
143
143
142
142
141
140
139
139
138
138
137
137
136
134
133
133
132
132
131
131
131
130
130
128
128
128
128
127
126
126
125
125
125
124
124
124
124
124
124
124
123
122
122
122
122
121
121
120
120
119
119
119
118
118
118
117
116
116
116
116
115
115
114
114
114
114
114
114
113
113
113
112
112
112
112
112
112
112
112
111
110
110
109
109
108
108
108
107
106
106
106
105
104
104
103
103
102
101
100
100
100
99
99
99
99
99
98
98
98
97
95
95
95
95
95
94
94
94
93
93
93
92
91
91
91
90
90
89
88
88
87
87
86
85
85
84
83
82
82
82
81
81
81
80
80
80
79
79
79
79
78
78
77
76
75
75
74
74
73
73
73
72
71
71
71
70
69
69
68
68
68
68
67
67
67
67
67
66
65
65
64
64
63
63
62
62
62
61
61
61
60
60
59
58
58
58
57
57
57
57
57
56
56
56
54
53
52
52
52
52
51
51
51
50
